10J3M/DAT/10J3MULR-9.dat
10 3
24.2955 43.1545
47.7793 0.2893
18.6619 29.3032
45.2034 2.6833
30.3706 45.5482
30.7744 34.6818
49.075 35.098
18.1338 14.9853
11.508 27.4669
25.2253 1.3795
78.1967