10J3M/SOL/10J3MULR-9.sol
solution status: optimal solution found
objective value:                     61.4862333333333
x#1#1                               0.283819498332107 	(obj:0)
x#1#2                               0.716180501667893 	(obj:0)
x#2#1                                               1 	(obj:0)
x#3#2                                               1 	(obj:0)
x#4#2                               0.238668052431843 	(obj:0)
x#4#3                               0.761331947568157 	(obj:0)
x#5#1                               0.472395333972349 	(obj:0)
x#5#3                               0.527604666027651 	(obj:0)
x#6#3                                               1 	(obj:0)
x#7#1                                               1 	(obj:0)
x#8#3                                               1 	(obj:0)
x#9#2                               0.974260976334305 	(obj:0)
x#9#3                              0.0257390236656946 	(obj:0)
x#10#1                                              1 	(obj:0)
z                                    61.4862333333333 	(obj:1)
